* ENCODING=ISO-8859-1
NAME          CPLEX
ROWS
 N  obj1    
 G  c1      
 G  c2      
 G  c3      
 G  c4      
 G  c5      
 G  c6      
 G  c7      
 G  c8      
 G  c9      
 G  c10     
 G  c11     
 G  c12     
 G  c13     
 G  c14     
 G  c15     
 G  c16     
 G  c17     
 G  c18     
 G  c19     
 G  c20     
 G  c21     
 G  c22     
 G  c23     
 G  c24     
 G  c25     
 G  c26     
 G  c27     
 G  c28     
 G  c29     
 G  c30     
COLUMNS
    MARK0000  'MARKER'                 'INTORG'
    x1        obj1                            1
    x1        c3                            333
    x1        c14                           957
    x1        c28                           125
    x2        obj1                            1
    x2        c9                            388
    x2        c12                           253
    x2        c16                           950
    x2        c19                           532
    x3        obj1                            1
    x3        c13                           706
    x3        c15                           974
    x3        c25                           774
    x4        obj1                            1
    x4        c7                            728
    x5        obj1                            1
    x5        c1                            462
    x5        c11                           827
    x5        c22                           660
    x5        c30                           143
    x6        obj1                            1
    x6        c12                           472
    x6        c26                           421
    x7        obj1                            1
    x7        c2                            540
    x7        c21                           773
    x7        c29                           322
    x8        obj1                            1
    x8        c15                           868
    x8        c16                           714
    x9        obj1                            1
    x9        c21                           196
    x9        c30                           845
    x10       obj1                            1
    x11       obj1                            1
    x11       c5                            986
    x11       c7                            649
    x11       c9                            331
    x11       c15                           487
    x12       obj1                            1
    x12       c8                            449
    x12       c27                           604
    x13       obj1                            1
    x14       obj1                            1
    x14       c6                            490
    x14       c12                           841
    x15       obj1                            1
    x15       c13                           875
    x16       obj1                            1
    x16       c4                            850
    x16       c7                            681
    x16       c21                           170
    x17       obj1                            1
    x17       c13                           966
    x17       c17                           854
    x17       c29                           541
    x17       c30                           970
    x18       obj1                            1
    x19       obj1                            1
    x19       c3                            708
    x19       c11                           553
    x19       c15                           432
    x19       c20                           182
    x19       c24                           726
    x20       obj1                            1
    x20       c6                            118
    x20       c9                            335
    x21       obj1                            1
    x22       obj1                            1
    x22       c2                            457
    x22       c7                            933
    x22       c22                           608
    x22       c29                           860
    x23       obj1                            1
    x23       c7                            133
    x23       c14                           258
    x24       obj1                            1
    x24       c23                           838
    x25       obj1                            1
    x25       c2                            950
    x25       c8                            864
    x25       c11                           473
    x25       c13                           335
    x26       obj1                            1
    x26       c8                            294
    x26       c17                           638
    x26       c22                           931
    x27       obj1                            1
    x27       c4                            346
    x27       c8                            866
    x27       c30                           868
    x28       obj1                            1
    x29       obj1                            1
    x29       c6                            228
    x29       c23                           734
    x29       c25                           795
    x30       obj1                            1
    x30       c5                            901
    x31       obj1                            1
    x31       c2                            962
    x31       c11                           761
    x31       c13                           710
    x31       c23                           585
    x32       obj1                            1
    x32       c10                           975
    x32       c13                           357
    x32       c15                           468
    x32       c23                           964
    x32       c28                           664
    x33       obj1                            1
    x33       c9                            362
    x33       c11                           875
    x33       c12                           682
    x33       c13                           261
    x33       c16                           751
    x33       c17                           159
    x33       c18                           261
    x33       c20                           894
    x33       c21                           392
    x33       c28                           965
    x34       obj1                            1
    x34       c15                           857
    x35       obj1                            1
    x36       obj1                            1
    x36       c23                           948
    x37       obj1                            1
    x37       c10                           453
    x37       c28                           410
    x38       obj1                            1
    x38       c17                           955
    x38       c19                           512
    x39       obj1                            1
    x39       c24                           123
    x39       c26                           733
    x39       c27                           641
    x40       obj1                            1
    x40       c9                            213
    x41       obj1                            1
    x41       c18                           599
    x41       c21                           954
    x41       c26                           358
    x42       obj1                            1
    x42       c22                           591
    x42       c24                           958
    x43       obj1                            1
    x43       c1                            857
    x43       c4                            169
    x43       c9                            771
    x43       c13                           486
    x44       obj1                            1
    x44       c7                            940
    x44       c9                            665
    x44       c15                           475
    x44       c29                           725
    x45       obj1                            1
    x45       c11                           426
    x45       c24                           335
    x46       obj1                            1
    x46       c7                            606
    x46       c12                           352
    x46       c18                           706
    x46       c22                           756
    x47       obj1                            1
    x47       c24                           901
    x48       obj1                            1
    x48       c1                            628
    x48       c5                            702
    x48       c14                           399
    x49       obj1                            1
    x49       c2                            630
    x49       c3                            694
    x49       c7                            959
    x50       obj1                            1
    x50       c18                           800
    x50       c19                           714
    x51       obj1                            1
    x51       c2                            325
    x51       c13                           333
    x51       c21                           652
    x52       obj1                            1
    x52       c10                           673
    x52       c23                           985
    x52       c28                           789
    x53       obj1                            1
    x53       c7                            572
    x53       c15                           485
    x53       c19                           704
    x53       c22                           306
    x54       obj1                            1
    x54       c5                            422
    x54       c15                           256
    x54       c17                           189
    x54       c20                           746
    x54       c21                           484
    x55       obj1                            1
    x55       c17                           682
    x55       c25                           489
    x55       c26                           990
    x56       obj1                            1
    x56       c8                            843
    x56       c19                           464
    x56       c21                           223
    x56       c27                           152
    x56       c28                           886
    x57       obj1                            1
    x57       c2                            590
    x57       c8                            222
    x57       c9                            271
    x58       obj1                            1
    x58       c8                            486
    x58       c23                           951
    x58       c24                           632
    x59       obj1                            1
    x59       c14                           296
    x59       c21                           137
    x60       obj1                            1
    x60       c2                            914
    x60       c4                            172
    x60       c12                           216
    MARK0001  'MARKER'                 'INTEND'
RHS
    rhs       c1                            974
    rhs       c2                           2684
    rhs       c3                            868
    rhs       c4                            769
    rhs       c5                           1506
    rhs       c6                            418
    rhs       c7                           3101
    rhs       c8                           2012
    rhs       c9                           1668
    rhs       c10                          1051
    rhs       c11                          1958
    rhs       c12                          1408
    rhs       c13                          2515
    rhs       c14                           955
    rhs       c15                          2651
    rhs       c16                          1208
    rhs       c17                          1739
    rhs       c18                          1183
    rhs       c19                          1463
    rhs       c20                           911
    rhs       c21                          1991
    rhs       c22                          1926
    rhs       c23                          3003
    rhs       c24                          1838
    rhs       c25                          1029
    rhs       c26                          1251
    rhs       c27                           699
    rhs       c28                          1920
    rhs       c29                          1224
    rhs       c30                          1413
BOUNDS
 LI bnd       x1        0
 LI bnd       x2        0
 LI bnd       x3        0
 LI bnd       x4        0
 LI bnd       x5        0
 LI bnd       x6        0
 LI bnd       x7        0
 LI bnd       x8        0
 LI bnd       x9        0
 LI bnd       x10       0
 LI bnd       x11       0
 LI bnd       x12       0
 LI bnd       x13       0
 LI bnd       x14       0
 LI bnd       x15       0
 LI bnd       x16       0
 LI bnd       x17       0
 LI bnd       x18       0
 LI bnd       x19       0
 LI bnd       x20       0
 LI bnd       x21       0
 LI bnd       x22       0
 LI bnd       x23       0
 LI bnd       x24       0
 LI bnd       x25       0
 LI bnd       x26       0
 LI bnd       x27       0
 LI bnd       x28       0
 LI bnd       x29       0
 LI bnd       x30       0
 LI bnd       x31       0
 LI bnd       x32       0
 LI bnd       x33       0
 LI bnd       x34       0
 LI bnd       x35       0
 LI bnd       x36       0
 LI bnd       x37       0
 LI bnd       x38       0
 LI bnd       x39       0
 LI bnd       x40       0
 LI bnd       x41       0
 LI bnd       x42       0
 LI bnd       x43       0
 LI bnd       x44       0
 LI bnd       x45       0
 LI bnd       x46       0
 LI bnd       x47       0
 LI bnd       x48       0
 LI bnd       x49       0
 LI bnd       x50       0
 LI bnd       x51       0
 LI bnd       x52       0
 LI bnd       x53       0
 LI bnd       x54       0
 LI bnd       x55       0
 LI bnd       x56       0
 LI bnd       x57       0
 LI bnd       x58       0
 LI bnd       x59       0
 LI bnd       x60       0
ENDATA
